100 6 100
7 71 47 69 31 3 18 18 91 45 17 10 75 73 84 26 5 10 92 53 30 84 21 2 37 1 46 49 11 15 8 19 38 7 40 70 63 10 88 54 56 58 65 83 83 1 9 88 64 2 94 46 38 15 49 75 69 95 24 80 62 85 51 1 92 44 23 55 54 63 62 10 21 79 93 5 80 55 45 44 57 39 91 47 7 92 22 76 39 47 8 1 32 60 54 76 56 77 84 10 
